predicate all_different_int(array [int] of var int: xs);
var 1..3: x:: output_var ;
var 1..3: y:: output_var ;
var 1..3: z:: output_var ;
constraint int_lin_eq([1,1,-1],[x,y,z],0);
solve :: int_search([x, y, z], input_order, indomain_min, complete)
 satisfy;
